NAME : p654.27428.tour
COMMENT : Length = 27428
COMMENT : Found by LKH [Keld Helsgaun] Sat May 25 06:44:41 2013
TYPE : TOUR
DIMENSION : 131
TOUR_SECTION
1
2
4
5
15
17
16
574
577
579
580
582
583
608
586
587
299
320
332
348
368
392
644
645
647
648
650
628
630
654
410
422
426
466
470
478
19
18
58
59
60
57
52
51
53
50
49
48
47
43
41
38
34
26
24
25
23
30
35
14
62
11
13
7
8
9
10
63
65
66
67
69
68
70
71
72
73
104
105
106
286
278
274
242
226
206
572
548
546
567
566
565
563
562
75
78
79
76
74
77
81
84
85
87
86
82
90
93
92
94
96
97
98
99
100
102
190
178
174
130
122
110
560
559
557
555
554
552
535
534
549
-1
EOF
